32	0

0	2	2	4
8	2	3	6
6	1	5
9	2	5	6
2	1	7
9	1	7
8	2	8	9
9	1	10
5	1	10
4	2	11	12
10	2	13	14
2	2	13	14
8	2	15	16
8	2	15	16
9	1	17
8	1	17
6	2	18	19
6	3	20	21	22
10	2	21	22
7	2	23	25
2	2	23	25
1	2	23	25
2	1	24
6	3	26	27	28
9	2	27	28
6	2	29	31
6	2	30	31
1	2	29	31
3	1	30
8	1	32
9	1	32
0	0
